    1C
    1UUSER                                                              
    1UDATE              05.september.2023                               
    1UTIME              02:03:43                                        
    1UHOST                                                              
    1UPGM               CalculiX                                        
    1UVERSION           Version 2.17                             
    1UCOMPILETIME       Thu Jul 23 21:29:36 CEST 2020                    
    1UDIR                                                               
    1UDBN                                                               
    1UMAT    1ALUM                                                      
    2C                            88                                     1
 -1        12 1.87282E-01-1.25000E-01 3.61345E-01
 -1        13-5.92818E-02-1.25000E-01 4.02655E-01
 -1        14-5.92818E-02 1.25000E-01 4.02655E-01
 -1        15 1.87282E-01 1.25000E-01 3.61345E-01
 -1        20 3.82361E-02-1.25000E-01 5.04316E-01
 -1        21 8.97639E-02-1.25000E-01 2.59684E-01
 -1        22 8.97639E-02 1.25000E-01 2.59684E-01
 -1        23 3.82361E-02 1.25000E-01 5.04316E-01
 -1        46 1.23282E-01-1.25000E-01-2.06545E-02
 -1        47-1.23282E-01-1.25000E-01 2.06545E-02
 -1        48-1.23282E-01 1.25000E-01 2.06545E-02
 -1        49 1.23282E-01 1.25000E-01-2.06545E-02
 -1        54 0.00000E+00-1.25000E-01 1.25000E-01
 -1        55 0.00000E+00-1.25000E-01-1.25000E-01
 -1        56 0.00000E+00 1.25000E-01-1.25000E-01
 -1        57 0.00000E+00 1.25000E-01 1.25000E-01
 -1        80 8.75318E-01-1.25000E-01 8.90588E-03
 -1        81 1.12468E+00-1.25000E-01-8.90588E-03
 -1        82 1.12468E+00 1.25000E-01-8.90588E-03
 -1        83 8.75318E-01 1.25000E-01 8.90588E-03
 -1        88 1.00000E+00-1.25000E-01 1.25000E-01
 -1        89 1.00000E+00-1.25000E-01-1.25000E-01
 -1        90 1.00000E+00 1.25000E-01-1.25000E-01
 -1        91 1.00000E+00 1.25000E-01 1.25000E-01
 -1       114 9.17318E-01-1.25000E-01 5.96906E-01
 -1       115 1.16668E+00-1.25000E-01 5.79094E-01
 -1       116 1.16668E+00 1.25000E-01 5.79094E-01
 -1       117 9.17318E-01 1.25000E-01 5.96906E-01
 -1       122 1.01625E+00-1.25000E-01 7.10319E-01
 -1       123 1.06775E+00-1.25000E-01 4.65681E-01
 -1       124 1.06775E+00 1.25000E-01 4.65681E-01
 -1       125 1.01625E+00 1.25000E-01 7.10319E-01
 -1       148 1.87504E+00-1.25000E-01 3.30489E-03
 -1       149 2.12496E+00-1.25000E-01-3.30489E-03
 -1       150 2.12496E+00 1.25000E-01-3.30489E-03
 -1       151 1.87504E+00 1.25000E-01 3.30489E-03
 -1       156 2.00000E+00-1.25000E-01 1.25000E-01
 -1       157 2.00000E+00-1.25000E-01-1.25000E-01
 -1       158 2.00000E+00 1.25000E-01-1.25000E-01
 -1       159 2.00000E+00 1.25000E-01 1.25000E-01
 -1       182 1.89604E+00-1.25000E-01 7.97305E-01
 -1       183 2.14596E+00-1.25000E-01 7.90695E-01
 -1       184 2.14596E+00 1.25000E-01 7.90695E-01
 -1       185 1.89604E+00 1.25000E-01 7.97305E-01
 -1       190 1.99526E+00-1.25000E-01 9.16321E-01
 -1       191 2.04674E+00-1.25000E-01 6.71679E-01
 -1       192 2.04674E+00 1.25000E-01 6.71679E-01
 -1       193 1.99526E+00 1.25000E-01 9.16321E-01
 -1       216 2.97426E+00-1.25000E-01 1.12232E+00
 -1       217 3.02574E+00-1.25000E-01 8.77679E-01
 -1       218 3.02574E+00 1.25000E-01 8.77679E-01
 -1       219 2.97426E+00 1.25000E-01 1.12232E+00
 -1       224 2.92667E+00-1.25000E-01 1.10123E+00
 -1       225 3.07333E+00-1.25000E-01 8.98767E-01
 -1       226 3.07333E+00 1.25000E-01 8.98767E-01
 -1       227 2.92667E+00 1.25000E-01 1.10123E+00
 -1       232 2.87500E+00-1.25000E-01 1.00000E+00
 -1       233 3.12500E+00-1.25000E-01 1.00000E+00
 -1       234 3.12500E+00 1.25000E-01 1.00000E+00
 -1       235 2.87500E+00 1.25000E-01 1.00000E+00
 -1       266-9.73685E+00-1.25000E-01 5.57106E+00
 -1       267-9.64915E+00-1.25000E-01 5.33694E+00
 -1       268-9.64915E+00 1.25000E-01 5.33694E+00
 -1       269-9.73685E+00 1.25000E-01 5.57106E+00
 -1       274-9.68784E+00-1.25000E-01 5.32911E+00
 -1       275-9.69816E+00-1.25000E-01 5.57889E+00
 -1       276-9.69816E+00 1.25000E-01 5.57889E+00
 -1       277-9.68784E+00 1.25000E-01 5.32911E+00
 -1       300 8.99115E+00-1.25000E-01 1.25861E+01
 -1       301 9.07885E+00-1.25000E-01 1.23519E+01
 -1       302 9.07885E+00 1.25000E-01 1.23519E+01
 -1       303 8.99115E+00 1.25000E-01 1.25861E+01
 -1       308 1.02932E+01-1.25000E-01 6.15411E+00
 -1       309 1.02828E+01-1.25000E-01 6.40389E+00
 -1       310 1.02828E+01 1.25000E-01 6.40389E+00
 -1       311 1.02932E+01 1.25000E-01 6.15411E+00
 -1       316 1.02147E+01-1.25000E-01 6.38023E+00
 -1       317 1.03613E+01-1.25000E-01 6.17777E+00
 -1       318 1.03613E+01 1.25000E-01 6.17777E+00
 -1       319 1.02147E+01 1.25000E-01 6.38023E+00
 -1       342 2.87500E+00-1.25000E-01 0.00000E+00
 -1       343 3.12500E+00-1.25000E-01 0.00000E+00
 -1       344 3.12500E+00 1.25000E-01 0.00000E+00
 -1       345 2.87500E+00 1.25000E-01 0.00000E+00
 -1       350 3.00000E+00-1.25000E-01 1.25000E-01
 -1       351 3.00000E+00-1.25000E-01-1.25000E-01
 -1       352 3.00000E+00 1.25000E-01-1.25000E-01
 -1       353 3.00000E+00 1.25000E-01 1.25000E-01
 -3
    3C                            13                                     1
 -1         1    1    0    1
 -2        12        46        47        13        15        49        48        14
 -1         2    1    0    1
 -2        80       114       115        81        83       117       116        82
 -1         3    1    0    1
 -2       148       182       183       149       151       185       184       150
 -1         4    1    0    1
 -2       190       216       217       191       193       219       218       192
 -1         5    1    0    1
 -2       122       190       191       123       125       193       192       124
 -1         6    1    0    1
 -2        20       122       123        21        23       125       124        22
 -1         7    1    0    1
 -2       266       300       301       267       269       303       302       268
 -1         8    1    0    1
 -2       308       274       275       309       311       277       276       310
 -1         9    1    0    1
 -2       224       316       317       225       227       319       318       226
 -1        10    1    0    1
 -2       342       232       233       343       345       235       234       344
 -1        11    1    0    1
 -2       156       350       351       157       159       353       352       158
 -1        12    1    0    1
 -2        88       156       157        89        91       159       158        90
 -1        13    1    0    1
 -2        54        88        89        55        57        91        90        56
 -3
    1PSTEP                         1           1           1          
  100CL  101 1.000000000          88                     0    1           1
 -4  DISP        4    1
 -5  D1          1    2    1    0
 -5  D2          1    2    2    0
 -5  D3          1    2    3    0
 -5  ALL         1    2    0    0    1ALL
 -1        12 9.99315E-02 3.30768E-02 3.04737E-01
 -1        13-2.32362E-02-4.82041E-02-3.38870E-01
 -1        14-9.99315E-02-3.30768E-02-3.04737E-01
 -1        15 2.32362E-02 4.82041E-02 3.38870E-01
 -1        20-2.83734E-01-3.21674E-02-7.71781E-02
 -1        21 3.60429E-01 1.70401E-02 4.30454E-02
 -1        22 2.83734E-01 3.21674E-02 7.71781E-02
 -1        23-3.60429E-01-1.70401E-02-4.30454E-02
 -1        46 1.08189E-01 4.42522E-02-3.90434E-02
 -1        47 4.60653E-02-1.13153E-01 7.14059E-03
 -1        48-1.08189E-01-4.42522E-02 3.90434E-02
 -1        49-4.60653E-02 1.13153E-01-7.14059E-03
 -1        54 9.47692E-02-5.04020E-02 1.84991E-02
 -1        55 5.94851E-02-1.84991E-02-5.04020E-02
 -1        56-9.47692E-02 5.04020E-02-1.84991E-02
 -1        57-5.94851E-02 1.84991E-02 5.04020E-02
 -1        80-1.35878E+00 4.70556E-01 4.69383E-02
 -1        81-1.25044E+00 6.29039E-01 2.34915E-02
 -1        82-1.39097E+00 7.38779E-01 2.80481E-01
 -1        83-1.49932E+00 5.80296E-01 3.03928E-01
 -1        88-1.29678E+00 4.21303E-01 9.00845E-02
 -1        89-1.31245E+00 6.78293E-01-1.96547E-02
 -1        90-1.45298E+00 7.88032E-01 2.37335E-01
 -1        91-1.43731E+00 5.31042E-01 3.47074E-01
 -1       114 6.59851E-02 2.51662E-02 4.14738E-01
 -1       115-7.41243E-02 3.62686E-02-6.84515E-01
 -1       116-6.59851E-02-2.51662E-02-4.14738E-01
 -1       117 7.41243E-02-3.62686E-02 6.84515E-01
 -1       122 5.43613E-01-1.00440E-01-5.09779E-02
 -1       123-5.51752E-01 1.61874E-01-2.18800E-01
 -1       124-5.43613E-01 1.00440E-01 5.09779E-02
 -1       125 5.51752E-01-1.61874E-01 2.18800E-01
 -1       148-2.69955E+00 1.00975E+00-4.32366E+00
 -1       149-2.72099E+00 1.12353E+00-7.38559E+00
 -1       150-2.82190E+00 1.18305E+00-6.89797E+00
 -1       151-2.80046E+00 1.06927E+00-3.83604E+00
 -1       156-1.17955E+00 8.22833E-01-5.82486E+00
 -1       157-4.24098E+00 1.31045E+00-5.88438E+00
 -1       158-4.34190E+00 1.36997E+00-5.39677E+00
 -1       159-1.28047E+00 8.82353E-01-5.33725E+00
 -1       182 2.99661E+00-4.04071E-01-4.81028E+00
 -1       183 2.80059E+00-4.73013E-01-5.83365E+00
 -1       184 2.88364E+00-6.41899E-01-5.30130E+00
 -1       185 3.07965E+00-5.72958E-01-4.27794E+00
 -1       190 3.41906E+00-6.90462E-01-5.29874E+00
 -1       191 2.37813E+00-1.86622E-01-5.34519E+00
 -1       192 2.46118E+00-3.55509E-01-4.81284E+00
 -1       193 3.50211E+00-8.59348E-01-4.76640E+00
 -1       216 9.93586E+00-1.78166E+00-1.66004E+01
 -1       217 4.24207E+00-1.00792E+00-1.77511E+01
 -1       218 4.32659E+00-1.05434E+00-1.69426E+01
 -1       219 1.00204E+01-1.82808E+00-1.57920E+01
 -1       224 9.45471E+00-1.69738E+00-1.54908E+01
 -1       225 4.72322E+00-1.09221E+00-1.88607E+01
 -1       226 4.80774E+00-1.13863E+00-1.80522E+01
 -1       227 9.53922E+00-1.74380E+00-1.46823E+01
 -1       232 7.11218E+00-1.35253E+00-1.42714E+01
 -1       233 7.06575E+00-1.43705E+00-2.00801E+01
 -1       234 7.15027E+00-1.48347E+00-1.92716E+01
 -1       235 7.19669E+00-1.39896E+00-1.34629E+01
 -1       266 3.33331E+02-5.14811E+02-1.10537E+04
 -1       267 5.84472E+02-5.08207E+02-1.09597E+04
 -1       268 5.74825E+02-5.08204E+02-1.09562E+04
 -1       269 3.23684E+02-5.14808E+02-1.10503E+04
 -1       274 5.92877E+02-5.09592E+02-1.10012E+04
 -1       275 3.24926E+02-5.13426E+02-1.10122E+04
 -1       276 3.15279E+02-5.13423E+02-1.10088E+04
 -1       277 5.83231E+02-5.09589E+02-1.09977E+04
 -1       300-3.84121E+03 1.11617E+02 4.19806E+02
 -1       301-3.80647E+03 1.17653E+02 4.32818E+02
 -1       302-3.81612E+03 1.18221E+02 4.36257E+02
 -1       303-3.85086E+03 1.11048E+02 4.23245E+02
 -1       308 5.27166E+00 1.92237E+00-1.69558E+00
 -1       309-1.82470E+00-1.91162E+00-1.99935E+00
 -1       310-5.27166E+00-1.92237E+00 1.69558E+00
 -1       311 1.82470E+00 1.91162E+00 1.99935E+00
 -1       316-1.14954E+00-2.50184E+00-3.93515E+00
 -1       317 4.59650E+00 2.51260E+00 2.40220E-01
 -1       318 1.14954E+00 2.50184E+00 3.93515E+00
 -1       319-4.59650E+00-2.51260E+00-2.40220E-01
 -1       342-3.87974E+00 1.36201E+00-1.58291E+01
 -1       343-3.77570E+00 1.43295E+00-1.69562E+01
 -1       344-3.84664E+00 1.53699E+00-1.63263E+01
 -1       345-3.95068E+00 1.46605E+00-1.51991E+01
 -1       350-3.26414E+00 1.08249E+00-1.63406E+01
 -1       351-4.39129E+00 1.71247E+00-1.64447E+01
 -1       352-4.46223E+00 1.81650E+00-1.58147E+01
 -1       353-3.33508E+00 1.18653E+00-1.57107E+01
 -3
    1PSTEP                         2           1           1          
  100CL  101 1.000000000          88                     0    1           1
 -4  STRESS      6    1
 -5  SXX         1    4    1    1
 -5  SYY         1    4    2    2
 -5  SZZ         1    4    3    3
 -5  SXY         1    4    1    2
 -5  SYZ         1    4    2    3
 -5  SZX         1    4    3    1
 -1        12 3.33219E+06 4.63348E+06 9.81907E+06-2.81781E+04-1.68188E+05 5.76151E+06
 -1        13 2.79739E+06-1.24278E+06-9.23366E+06 9.67268E+04 5.77338E+05 2.56943E+06
 -1        14 3.17970E+06-1.24278E+06-9.06218E+06 9.67268E+04 5.77338E+05 3.33266E+06
 -1        15 3.71450E+06 4.63348E+06 9.99055E+06-2.81781E+04-1.68188E+05 6.52474E+06
 -1        20 6.32836E+06 3.31048E+06 1.74921E+06-4.34676E+05-9.16247E+04 4.35541E+06
 -1        21-1.22168E+07-2.49993E+06 9.26305E+05 3.67788E+05 7.74448E+04 4.48903E+05
 -1        22-1.11438E+07-2.49986E+06 1.73417E+06 3.67788E+05 7.74292E+04 1.40354E+06
 -1        23 7.40129E+06 3.31053E+06 2.55705E+06-4.34670E+05-9.16388E+04 5.31002E+06
 -1        46 6.32106E+06 7.70625E+06 9.90297E+06-2.81781E+04-1.68188E+05 5.26075E+06
 -1        47 5.78626E+06 1.82999E+06-9.14976E+06 9.67268E+04 5.77338E+05 2.06867E+06
 -1        48 6.16858E+06 1.82999E+06-8.97829E+06 9.67268E+04 5.77338E+05 2.83191E+06
 -1        49 6.70337E+06 7.70625E+06 1.00744E+07-2.81781E+04-1.68188E+05 6.02399E+06
 -1        54-1.45681E+07-2.26029E+06-2.25058E+06-3.74790E+05-2.09405E-11 5.88695E+05
 -1        55-1.43526E+07-2.19562E+06-2.25058E+06 4.90922E+05 7.81426E-11 5.88695E+05
 -1        56-1.42017E+07-2.19562E+06-2.20534E+06 4.90922E+05-2.91647E-10 1.45441E+06
 -1        57-1.44173E+07-2.26029E+06-2.20534E+06-3.74790E+05 7.81426E-11 1.45441E+06
 -1        80 6.04904E+06 9.15903E+06 9.56646E+06 3.59697E+04 5.03576E+05 1.62837E+05
 -1        81 5.94582E+06 3.05903E+06-1.06636E+07-3.25395E+04-4.55553E+05-1.28217E+06
 -1        82 6.21461E+06 3.05903E+06-1.03666E+07-3.25395E+04-4.55553E+05-3.08709E+05
 -1        83 6.31782E+06 9.15903E+06 9.86348E+06 3.59697E+04 5.03576E+05 1.13630E+06
 -1        88-6.39998E+06 2.52167E+06-1.63478E+04-3.92155E+05 4.16252E-09 8.02707E+05
 -1        89-2.30271E+07-2.46645E+06-1.63478E+04 4.84214E+05-5.23363E-09 8.02707E+05
 -1        90-2.27340E+07-2.46645E+06 7.15699E+04 4.84214E+05-5.25656E-09 1.67908E+06
 -1        91-6.10692E+06 2.52167E+06 7.15699E+04-3.92155E+05 9.10879E-09 1.67908E+06
 -1       114-3.68262E+06-6.22282E+05 9.51681E+06 3.59697E+04 5.03576E+05 8.57956E+05
 -1       115-3.78584E+06-6.72228E+06-1.07133E+07-3.25395E+04-4.55553E+05-5.87052E+05
 -1       116-3.51705E+06-6.72228E+06-1.04163E+07-3.25395E+04-4.55553E+05 3.86410E+05
 -1       117-3.41384E+06-6.22282E+05 9.81383E+06 3.59697E+04 5.03576E+05 1.83142E+06
 -1       122 1.29978E+07 1.80263E+06 2.77068E+05-4.70760E+05-9.91568E+04 1.52908E+06
 -1       123 4.13693E+06-9.73553E+05-1.16032E+05 3.84770E+05 8.09520E+04-3.37257E+05
 -1       124 5.16506E+06-9.73539E+05 7.05616E+05 3.84766E+05 8.09481E+04 6.63615E+05
 -1       125 1.40259E+07 1.80263E+06 1.09869E+06-4.70755E+05-9.91588E+04 2.52992E+06
 -1       148 7.10143E+06 3.22471E+06-4.73451E+06 1.16405E+04 4.40123E+05-4.69555E+06
 -1       149 7.12109E+06 1.16638E+07 2.33760E+07-1.17518E+04-4.44330E+05-3.95208E+06
 -1       150 7.37397E+06 1.16638E+07 2.40148E+07-1.17518E+04-4.44330E+05-3.05586E+06
 -1       151 7.35430E+06 3.22471E+06-4.09570E+06 1.16405E+04 4.40123E+05-3.79934E+06
 -1       156-1.00452E+07-1.21476E+06-2.18816E+06-3.23594E+05 4.72498E-08-3.64700E+06
 -1       157-1.61522E+07-3.04686E+06-2.18816E+06 3.93684E+05-2.65867E-08-3.64700E+06
 -1       158-1.57699E+07-3.04686E+06-2.07345E+06 3.93684E+05-1.81929E-08-2.92972E+06
 -1       159-9.66286E+06-1.21476E+06-2.07345E+06-3.23594E+05 3.47035E-08-2.92972E+06
 -1       182-5.94120E+06-9.82704E+06-4.74364E+06 1.16405E+04 4.40123E+05-4.35060E+06
 -1       183-5.92154E+06-1.38797E+06 2.33669E+07-1.17518E+04-4.44330E+05-3.60712E+06
 -1       184-5.66866E+06-1.38797E+06 2.40057E+07-1.17518E+04-4.44330E+05-2.71090E+06
 -1       185-5.68832E+06-9.82704E+06-4.10483E+06 1.16405E+04 4.40123E+05-3.45438E+06
 -1       190 2.97272E+07 2.18311E+06-5.95478E+05-5.34576E+05-1.12504E+05 6.28719E+06
 -1       191 4.99739E+06-5.56434E+06-1.69047E+06 4.27415E+05 8.98927E+04 1.08349E+06
 -1       192 5.59061E+06-5.56437E+06-9.58147E+05 4.27410E+05 8.99025E+04 2.12702E+06
 -1       193 3.03204E+07 2.18307E+06 1.36830E+05-5.34575E+05-1.12493E+05 7.33070E+06
 -1       216 4.01587E+07 1.28337E+07 8.39317E+06-5.62308E+05-1.18320E+05 1.21064E+07
 -1       217-1.01247E+07-2.91924E+06 6.16682E+06 4.53076E+05 9.53356E+04 1.52583E+06
 -1       218-9.92154E+06-2.91924E+06 6.79608E+06 4.53076E+05 9.53356E+04 2.56578E+06
 -1       219 4.03618E+07 1.28337E+07 9.02243E+06-5.62308E+05-1.18320E+05 1.31464E+07
 -1       224 1.41955E+06-2.97834E+06-4.23177E+06-7.79058E+05-5.64304E+05-1.98640E+06
 -1       225 1.17605E+07 1.75165E+06 1.19384E+06 7.47125E+05 5.41174E+05 5.50400E+06
 -1       226 8.88841E+06 1.75165E+06 2.21378E+06 7.47125E+05 5.41174E+05 5.61770E+06
 -1       227-1.45258E+06-2.97834E+06-3.21183E+06-7.79058E+05-5.64304E+05-1.87271E+06
 -1       232-6.37997E+06 1.63103E+06 1.67315E+07-1.69999E-08 3.35047E+05-1.13650E+07
 -1       233-6.37997E+06-1.38025E+07-3.47137E+07 9.26769E-09-2.62852E+05-1.13650E+07
 -1       234-5.79154E+06-1.38025E+07-3.27523E+07-4.21799E-10-2.62852E+05-1.07671E+07
 -1       235-5.79154E+06 1.63103E+06 1.86930E+07 8.06728E-08 3.35047E+05-1.07671E+07
 -1       266 5.90473E+07 2.19974E+07 1.38560E+07 1.58450E+06-4.07437E+06 1.93598E+07
 -1       267-5.88491E+07-2.17160E+07-1.39593E+07 1.48215E+06-4.11270E+06-1.98889E+07
 -1       268-5.88491E+07-2.17160E+07-1.39593E+07-1.48215E+06 4.11270E+06-1.98889E+07
 -1       269 5.90473E+07 2.19974E+07 1.38560E+07-1.58450E+06 4.07437E+06 1.93598E+07
 -1       274-7.33442E+07-2.13246E+07-3.75388E+05 7.09770E+03 2.93058E+02-2.21847E+06
 -1       275 6.98737E+07 2.17141E+07-1.31230E+05 7.09763E+03 2.93056E+02 3.69489E+06
 -1       276 7.32792E+07 2.17141E+07 8.95701E+05 7.09763E+03 2.93056E+02 3.79326E+06
 -1       277-6.99387E+07-2.13246E+07 6.51543E+05 7.09770E+03 2.93058E+02-2.12009E+06
 -1       300 4.59075E+07-8.81263E+06 5.57127E+05-1.48215E+06 4.11270E+06 1.94292E+07
 -1       301-4.57613E+07 8.67195E+06-1.03053E+06-1.58450E+06 4.07437E+06-1.98196E+07
 -1       302-4.57613E+07 8.67195E+06-1.03053E+06 1.58450E+06-4.07437E+06-1.98196E+07
 -1       303 4.59075E+07-8.81263E+06 5.57127E+05 1.48215E+06-4.11270E+06 1.94292E+07
 -1       308-7.33456E+07-2.21198E+07-1.16928E+06 7.09770E+03 2.93058E+02-2.18569E+06
 -1       309 6.98723E+07 2.09188E+07-9.25120E+05 7.09763E+03 2.93056E+02 3.72767E+06
 -1       310 7.32778E+07 2.09188E+07 1.01810E+05 7.09763E+03 2.93056E+02 3.82604E+06
 -1       311-6.99401E+07-2.21198E+07-1.42348E+05 7.09770E+03 2.93058E+02-2.08731E+06
 -1       316 2.12089E+06-9.40255E+05-2.89503E+06-7.79058E+05-5.64304E+05-2.95466E+06
 -1       317 1.24619E+07 3.78973E+06 2.53058E+06 7.47125E+05 5.41174E+05 4.53575E+06
 -1       318 9.58975E+06 3.78973E+06 3.55052E+06 7.47125E+05 5.41174E+05 4.64944E+06
 -1       319-7.51238E+05-9.40255E+05-1.87509E+06-7.79058E+05-5.64304E+05-2.84096E+06
 -1       342 2.21751E+06 1.02285E+07 1.67315E+07-2.51986E-08 3.35047E+05-1.13650E+07
 -1       343 2.21751E+06-5.20506E+06-3.47137E+07-2.53145E-09-2.62852E+05-1.13650E+07
 -1       344 2.80594E+06-5.20506E+06-3.27523E+07-1.18230E-08-2.62852E+05-1.07671E+07
 -1       345 2.80594E+06 1.02285E+07 1.86930E+07-4.78434E-09 3.35047E+05-1.07671E+07
 -1       350-2.18586E+07-1.98631E+06 1.15263E+06-2.37669E+05-1.75541E-07-8.31072E+06
 -1       351-6.02924E+05 4.39040E+06 1.15263E+06 3.09863E+05 5.22171E-08-8.31072E+06
 -1       352-2.73491E+05 4.39040E+06 1.25146E+06 3.09863E+05 3.87985E-08-7.76319E+06
 -1       353-2.15292E+07-1.98631E+06 1.25146E+06-2.37669E+05-1.04965E-07-7.76319E+06
 -3
    1PSTEP                         3           1           1          
  100CL  101 1.000000000          88                     0    1           1
 -4  ERROR       1    1
 -5  STR(%)      1    1    0    0
 -1        12 6.26828E+01
 -1        13 6.26828E+01
 -1        14 6.26828E+01
 -1        15 6.26828E+01
 -1        20 8.56748E+01
 -1        21 8.56748E+01
 -1        22 8.56748E+01
 -1        23 8.56748E+01
 -1        46 6.26828E+01
 -1        47 6.26828E+01
 -1        48 6.26828E+01
 -1        49 6.26828E+01
 -1        54 2.89548E-01
 -1        55 2.89548E-01
 -1        56 2.89548E-01
 -1        57 2.89548E-01
 -1        80 2.08646E+02
 -1        81 2.08646E+02
 -1        82 2.08646E+02
 -1        83 2.08646E+02
 -1        88 9.02090E+01
 -1        89 9.02090E+01
 -1        90 9.02090E+01
 -1        91 9.02090E+01
 -1       114 2.08646E+02
 -1       115 2.08646E+02
 -1       116 2.08646E+02
 -1       117 2.08646E+02
 -1       122 8.56748E+01
 -1       123 8.56748E+01
 -1       124 8.56748E+01
 -1       125 8.56748E+01
 -1       148 9.44838E+01
 -1       149 9.44838E+01
 -1       150 9.44838E+01
 -1       151 9.44838E+01
 -1       156 9.02090E+01
 -1       157 9.02090E+01
 -1       158 9.02090E+01
 -1       159 9.02090E+01
 -1       182 9.44838E+01
 -1       183 9.44838E+01
 -1       184 9.44838E+01
 -1       185 9.44838E+01
 -1       190 9.68363E+01
 -1       191 9.68363E+01
 -1       192 9.68363E+01
 -1       193 9.68363E+01
 -1       216 9.68363E+01
 -1       217 9.68363E+01
 -1       218 9.68363E+01
 -1       219 9.68363E+01
 -1       224 1.00324E+02
 -1       225 1.00324E+02
 -1       226 1.00324E+02
 -1       227 1.00324E+02
 -1       232 8.62470E+01
 -1       233 8.62470E+01
 -1       234 8.62470E+01
 -1       235 8.62470E+01
 -1       266 1.29013E+02
 -1       267 1.29013E+02
 -1       268 1.29013E+02
 -1       269 1.29013E+02
 -1       274 1.23854E+02
 -1       275 1.23854E+02
 -1       276 1.23854E+02
 -1       277 1.23854E+02
 -1       300 1.29013E+02
 -1       301 1.29013E+02
 -1       302 1.29013E+02
 -1       303 1.29013E+02
 -1       308 1.23854E+02
 -1       309 1.23854E+02
 -1       310 1.23854E+02
 -1       311 1.23854E+02
 -1       316 1.00324E+02
 -1       317 1.00324E+02
 -1       318 1.00324E+02
 -1       319 1.00324E+02
 -1       342 8.62470E+01
 -1       343 8.62470E+01
 -1       344 8.62470E+01
 -1       345 8.62470E+01
 -1       350 5.11907E+01
 -1       351 5.11907E+01
 -1       352 5.11907E+01
 -1       353 5.11907E+01
 -3
 9999
