    1C
    1UUSER                                                              
    1UDATE              05.september.2023                               
    1UTIME              02:03:29                                        
    1UHOST                                                              
    1UPGM               CalculiX                                        
    1UVERSION           Version 2.17                             
    1UCOMPILETIME       Thu Jul 23 21:29:36 CEST 2020                    
    1UDIR                                                               
    1UDBN                                                               
    1UMAT    1ALUM                                                      
    2C                            88                                     1
 -1        12 0.00000E+00-1.25000E-01 1.12500E+00
 -1        13 0.00000E+00-1.25000E-01 8.75000E-01
 -1        14 0.00000E+00 1.25000E-01 8.75000E-01
 -1        15 0.00000E+00 1.25000E-01 1.12500E+00
 -1        20 1.25000E-01-1.25000E-01 1.00000E+00
 -1        21-1.25000E-01-1.25000E-01 1.00000E+00
 -1        22-1.25000E-01 1.25000E-01 1.00000E+00
 -1        23 1.25000E-01 1.25000E-01 1.00000E+00
 -1        46 1.00000E+00-1.25000E-01 1.12500E+00
 -1        47 1.00000E+00-1.25000E-01 8.75000E-01
 -1        48 1.00000E+00 1.25000E-01 8.75000E-01
 -1        49 1.00000E+00 1.25000E-01 1.12500E+00
 -1        54 8.75000E-01-1.25000E-01 1.00000E+00
 -1        55 1.12500E+00-1.25000E-01 1.00000E+00
 -1        56 1.12500E+00 1.25000E-01 1.00000E+00
 -1        57 8.75000E-01 1.25000E-01 1.00000E+00
 -1        80 2.00000E+00-1.25000E-01 1.12500E+00
 -1        81 2.00000E+00-1.25000E-01 8.75000E-01
 -1        82 2.00000E+00 1.25000E-01 8.75000E-01
 -1        83 2.00000E+00 1.25000E-01 1.12500E+00
 -1        88 1.87500E+00-1.25000E-01 1.00000E+00
 -1        89 2.12500E+00-1.25000E-01 1.00000E+00
 -1        90 2.12500E+00 1.25000E-01 1.00000E+00
 -1        91 1.87500E+00 1.25000E-01 1.00000E+00
 -1       114 3.00000E+00-1.25000E-01 1.12500E+00
 -1       115 3.00000E+00-1.25000E-01 8.75000E-01
 -1       116 3.00000E+00 1.25000E-01 8.75000E-01
 -1       117 3.00000E+00 1.25000E-01 1.12500E+00
 -1       122 2.92667E+00-1.25000E-01 1.10123E+00
 -1       123 3.07333E+00-1.25000E-01 8.98767E-01
 -1       124 3.07333E+00 1.25000E-01 8.98767E-01
 -1       125 2.92667E+00 1.25000E-01 1.10123E+00
 -1       130 2.87500E+00-1.25000E-01 1.00000E+00
 -1       131 3.12500E+00-1.25000E-01 1.00000E+00
 -1       132 3.12500E+00 1.25000E-01 1.00000E+00
 -1       133 2.87500E+00 1.25000E-01 1.00000E+00
 -1       164 8.75000E-01-1.25000E-01 0.00000E+00
 -1       165 1.12500E+00-1.25000E-01 0.00000E+00
 -1       166 1.12500E+00 1.25000E-01 0.00000E+00
 -1       167 8.75000E-01 1.25000E-01 0.00000E+00
 -1       172 1.00000E+00-1.25000E-01 1.25000E-01
 -1       173 1.00000E+00-1.25000E-01-1.25000E-01
 -1       174 1.00000E+00 1.25000E-01-1.25000E-01
 -1       175 1.00000E+00 1.25000E-01 1.25000E-01
 -1       198 1.25000E-01-1.25000E-01 0.00000E+00
 -1       199-1.25000E-01-1.25000E-01 0.00000E+00
 -1       200-1.25000E-01 1.25000E-01 0.00000E+00
 -1       201 1.25000E-01 1.25000E-01 0.00000E+00
 -1       206 0.00000E+00-1.25000E-01 1.25000E-01
 -1       207 0.00000E+00-1.25000E-01-1.25000E-01
 -1       208 0.00000E+00 1.25000E-01-1.25000E-01
 -1       209 0.00000E+00 1.25000E-01 1.25000E-01
 -1       232 1.87500E+00-1.25000E-01 0.00000E+00
 -1       233 2.12500E+00-1.25000E-01 0.00000E+00
 -1       234 2.12500E+00 1.25000E-01 0.00000E+00
 -1       235 1.87500E+00 1.25000E-01 0.00000E+00
 -1       240 2.00000E+00-1.25000E-01 1.25000E-01
 -1       241 2.00000E+00-1.25000E-01-1.25000E-01
 -1       242 2.00000E+00 1.25000E-01-1.25000E-01
 -1       243 2.00000E+00 1.25000E-01 1.25000E-01
 -1       266-9.73685E+00-1.25000E-01 5.57106E+00
 -1       267-9.64915E+00-1.25000E-01 5.33694E+00
 -1       268-9.64915E+00 1.25000E-01 5.33694E+00
 -1       269-9.73685E+00 1.25000E-01 5.57106E+00
 -1       274-9.68784E+00-1.25000E-01 5.32911E+00
 -1       275-9.69816E+00-1.25000E-01 5.57889E+00
 -1       276-9.69816E+00 1.25000E-01 5.57889E+00
 -1       277-9.68784E+00 1.25000E-01 5.32911E+00
 -1       300 8.99115E+00-1.25000E-01 1.25861E+01
 -1       301 9.07885E+00-1.25000E-01 1.23519E+01
 -1       302 9.07885E+00 1.25000E-01 1.23519E+01
 -1       303 8.99115E+00 1.25000E-01 1.25861E+01
 -1       308 1.02932E+01-1.25000E-01 6.15411E+00
 -1       309 1.02828E+01-1.25000E-01 6.40389E+00
 -1       310 1.02828E+01 1.25000E-01 6.40389E+00
 -1       311 1.02932E+01 1.25000E-01 6.15411E+00
 -1       316 1.02147E+01-1.25000E-01 6.38023E+00
 -1       317 1.03613E+01-1.25000E-01 6.17777E+00
 -1       318 1.03613E+01 1.25000E-01 6.17777E+00
 -1       319 1.02147E+01 1.25000E-01 6.38023E+00
 -1       342 2.87500E+00-1.25000E-01 0.00000E+00
 -1       343 3.12500E+00-1.25000E-01 0.00000E+00
 -1       344 3.12500E+00 1.25000E-01 0.00000E+00
 -1       345 2.87500E+00 1.25000E-01 0.00000E+00
 -1       350 3.00000E+00-1.25000E-01 1.25000E-01
 -1       351 3.00000E+00-1.25000E-01-1.25000E-01
 -1       352 3.00000E+00 1.25000E-01-1.25000E-01
 -1       353 3.00000E+00 1.25000E-01 1.25000E-01
 -3
    3C                            13                                     1
 -1         1    1    0    1
 -2        12        46        47        13        15        49        48        14
 -1         2    1    0    1
 -2        46        80        81        47        49        83        82        48
 -1         3    1    0    1
 -2        80       114       115        81        83       117       116        82
 -1         4    1    0    1
 -2       164        54        55       165       167        57        56       166
 -1         5    1    0    1
 -2        20       198       199        21        23       201       200        22
 -1         6    1    0    1
 -2       232        88        89       233       235        91        90       234
 -1         7    1    0    1
 -2       266       300       301       267       269       303       302       268
 -1         8    1    0    1
 -2       308       274       275       309       311       277       276       310
 -1         9    1    0    1
 -2       122       316       317       123       125       319       318       124
 -1        10    1    0    1
 -2       342       130       131       343       345       133       132       344
 -1        11    1    0    1
 -2       240       350       351       241       243       353       352       242
 -1        12    1    0    1
 -2       172       240       241       173       175       243       242       174
 -1        13    1    0    1
 -2       206       172       173       207       209       175       174       208
 -3
    1PSTEP                         1           1           1          
  100CL  101 1.000000000          88                     0    1           1
 -4  DISP        4    1
 -5  D1          1    2    1    0
 -5  D2          1    2    2    0
 -5  D3          1    2    3    0
 -5  ALL         1    2    0    0    1ALL
 -1        12-4.51578E-01-4.01380E+00-4.53127E-01
 -1        13 2.60174E-02-3.12318E+00-4.58444E-01
 -1        14 5.93676E-03-3.11787E+00 4.32175E-01
 -1        15-4.71659E-01-4.00849E+00 4.37493E-01
 -1        20-2.10122E-01-3.55845E+00-2.16987E-01
 -1        21-2.15439E-01-3.57853E+00-6.94583E-01
 -1        22-2.35520E-01-3.57322E+00 1.96036E-01
 -1        23-2.30202E-01-3.55314E+00 6.73632E-01
 -1        46 2.33449E-02-3.54933E+00-5.19821E-01
 -1        47-4.94434E-01-2.75520E+00-5.32936E-01
 -1        48-6.88587E-01-2.74208E+00 2.61198E-01
 -1        49-1.70808E-01-3.53622E+00 2.74312E-01
 -1        54-2.42102E-01-3.24934E+00-2.67489E-01
 -1        55-2.28987E-01-3.05519E+00-7.85268E-01
 -1        56-4.23140E-01-3.04207E+00 8.86549E-03
 -1        57-4.36254E-01-3.23622E+00 5.26644E-01
 -1        80-7.98015E-01-2.27392E+00 9.81235E-01
 -1        81 6.43360E-01-1.42304E+00 1.03033E+00
 -1        82 2.02820E-01-1.47214E+00 1.88121E+00
 -1        83-1.23856E+00-2.32302E+00 1.83212E+00
 -1        88-5.27812E-02-2.06875E+00 2.85094E-01
 -1        89-1.01874E-01-1.62821E+00 1.72647E+00
 -1        90-5.42415E-01-1.67731E+00 2.57735E+00
 -1        91-4.93322E-01-2.11785E+00 1.13597E+00
 -1       114 1.88055E+00-5.30870E-01-5.29858E-01
 -1       115-1.38997E+00 5.29858E-01-5.30870E-01
 -1       116-1.88055E+00 5.30870E-01 5.29858E-01
 -1       117 1.38997E+00-5.29858E-01 5.30870E-01
 -1       122 1.56933E+00-5.73919E-01 4.29320E-01
 -1       123-1.07875E+00 5.72907E-01-1.49005E+00
 -1       124-1.56933E+00 5.73919E-01-4.29320E-01
 -1       125 1.07875E+00-5.72907E-01 1.49005E+00
 -1       130 2.44783E-01-2.45795E-01 1.10490E+00
 -1       131 2.45795E-01 2.44783E-01-2.16562E+00
 -1       132-2.44783E-01 2.45795E-01-1.10490E+00
 -1       133-2.45795E-01-2.44783E-01 2.16562E+00
 -1       164 6.60925E-02-8.53171E-02-7.79415E-01
 -1       165 8.53171E-02 6.60925E-02-5.11732E-03
 -1       166-6.60925E-02 8.53171E-02 7.79415E-01
 -1       167-8.53171E-02-6.60925E-02 5.11732E-03
 -1       172-3.11444E-01-4.01879E-01-3.82654E-01
 -1       173 4.62854E-01 3.82654E-01-4.01879E-01
 -1       174 3.11444E-01 4.01879E-01 3.82654E-01
 -1       175-4.62854E-01-3.82654E-01 4.01879E-01
 -1       198-6.76612E-02-6.08909E-02-6.95585E-01
 -1       199-6.08909E-02 6.76612E-02-1.92545E-01
 -1       200 6.76612E-02 6.08909E-02 6.95585E-01
 -1       201 6.08909E-02-6.76612E-02 1.92545E-01
 -1       206 1.87244E-01-4.40680E-01-4.47450E-01
 -1       207-3.15796E-01 4.47450E-01-4.40680E-01
 -1       208-1.87244E-01 4.40680E-01 4.47450E-01
 -1       209 3.15796E-01-4.47450E-01 4.40680E-01
 -1       232-1.43112E-01 1.15533E+00 7.78560E-01
 -1       233-1.36417E-01 1.70738E+00-2.98712E-01
 -1       234-6.88467E-01 1.71408E+00 5.08026E-01
 -1       235-6.95162E-01 1.16203E+00 1.58530E+00
 -1       240 3.98872E-01 1.02799E+00 2.43272E-01
 -1       241-6.78400E-01 1.83473E+00 2.36577E-01
 -1       242-1.23045E+00 1.84142E+00 1.04332E+00
 -1       243-1.53178E-01 1.03468E+00 1.05001E+00
 -1       266 3.23610E+02-5.12670E+02-1.07721E+04
 -1       267 5.71453E+02-5.05439E+02-1.06792E+04
 -1       268 5.61809E+02-5.05439E+02-1.06751E+04
 -1       269 3.13966E+02-5.12670E+02-1.07679E+04
 -1       274 5.79748E+02-5.06803E+02-1.07202E+04
 -1       275 3.15314E+02-5.11307E+02-1.07311E+04
 -1       276 3.05671E+02-5.11307E+02-1.07270E+04
 -1       277 5.70104E+02-5.06802E+02-1.07161E+04
 -1       300-3.75209E+03 9.47041E+01 4.37763E+02
 -1       301-3.72065E+03 1.01367E+02 4.49539E+02
 -1       302-3.73030E+03 1.01936E+02 4.53649E+02
 -1       303-3.76174E+03 9.41367E+01 4.41873E+02
 -1       308 3.51147E+00 2.25241E+00-2.10881E+00
 -1       309-6.74900E-02-2.25187E+00-2.25711E+00
 -1       310-3.51147E+00-2.25241E+00 2.10881E+00
 -1       311 6.74900E-02 2.25187E+00 2.25711E+00
 -1       316 2.71668E-01-2.77778E+00-3.23382E+00
 -1       317 3.17231E+00 2.77832E+00-1.13210E+00
 -1       318-2.71668E-01 2.77778E+00 3.23382E+00
 -1       319-3.17231E+00-2.77832E+00 1.13210E+00
 -1       342-8.84766E-01 3.46390E+00-7.58749E-01
 -1       343-8.13503E-01 4.09086E+00 8.57394E-01
 -1       344-1.44046E+00 4.16212E+00 1.71331E+00
 -1       345-1.51173E+00 3.53516E+00 9.71711E-02
 -1       350-1.65721E+00 3.34942E+00 8.49538E-02
 -1       351-4.10627E-02 4.20534E+00 1.36910E-02
 -1       352-6.68024E-01 4.27660E+00 8.69611E-01
 -1       353-2.28417E+00 3.42068E+00 9.40874E-01
 -3
    1PSTEP                         2           1           1          
  100CL  101 1.000000000          88                     0    1           1
 -4  STRESS      6    1
 -5  SXX         1    4    1    1
 -5  SYY         1    4    2    2
 -5  SZZ         1    4    3    3
 -5  SXY         1    4    1    2
 -5  SYZ         1    4    2    3
 -5  SZX         1    4    3    1
 -1        12 5.37280E+06 1.49340E+06 1.39612E+05 1.53485E+05-6.20680E-09 3.75920E+04
 -1        13-5.56531E+06-1.78803E+06 1.39612E+05-2.17612E+05-3.24841E-09 3.75920E+04
 -1        14-7.47818E+06-1.78803E+06-4.34248E+05-2.17612E+05 2.95845E-09-3.33505E+05
 -1        15 3.45994E+06 1.49340E+06-4.34248E+05 1.53485E+05 5.12411E-09-3.33505E+05
 -1        20 2.24947E+05 1.84547E+06 5.19986E+06 3.88318E-09 2.53767E+05-7.66856E+05
 -1        21 2.24947E+05-1.38737E+06-5.57629E+06 3.74783E-09-3.17894E+05-7.66856E+05
 -1        22 2.33153E+05-1.38737E+06-5.54894E+06-1.48964E-10-3.17894E+05-1.33852E+06
 -1        23 2.33153E+05 1.84547E+06 5.22721E+06-1.36109E-11 2.53767E+05-1.33852E+06
 -1        46-2.19837E+06-3.47387E+05 7.93463E+05 2.85040E+04-8.31116E-09-5.87016E+05
 -1        47 3.09709E+06 1.24125E+06 7.93463E+05-4.79151E+04 9.87422E-09-5.87016E+05
 -1        48 7.86885E+05 1.24125E+06 1.00401E+05-4.79151E+04-2.50067E-09-6.63435E+05
 -1        49-4.50858E+06-3.47387E+05 1.00401E+05 2.85040E+04-1.18110E-08-6.63435E+05
 -1        54 3.07351E+05 2.45296E+06 6.05211E+06-1.24781E-08-3.74822E+04 7.76085E+05
 -1        55 3.07351E+05-1.80661E+06-8.14644E+06-1.22073E-08 1.26913E+05 7.76085E+05
 -1        56 3.39001E+05-1.80661E+06-8.04094E+06-3.31280E-09 1.26913E+05 6.11690E+05
 -1        57 3.39001E+05 2.45296E+06 6.15762E+06-7.08329E-09-3.74822E+04 6.11690E+05
 -1        80 9.64561E+06 7.25730E+03-2.01717E+06-2.29258E+05 2.05719E-08 3.47507E+06
 -1        81-5.47926E+06-4.53020E+06-2.01717E+06 2.83419E+05-9.34077E-09 3.47507E+06
 -1        82-7.10796E+06-4.53020E+06-2.50578E+06 2.83419E+05-8.79946E-09 3.98775E+06
 -1        83 8.01691E+06 7.25730E+03-2.50578E+06-2.29258E+05 2.67659E-09 3.98775E+06
 -1        88 1.24824E+06-2.83059E+06-4.45325E+06-7.24549E-11 2.43297E+05 3.04081E+06
 -1        89 1.24824E+06 5.47259E+06 2.32240E+07-5.24958E-09-1.85583E+05 3.04081E+06
 -1        90 1.39376E+06 5.47259E+06 2.37091E+07-1.20510E-08-1.85583E+05 3.46969E+06
 -1        91 1.39376E+06-2.83059E+06-3.96817E+06-1.22492E-08 2.43297E+05 3.46969E+06
 -1       114 2.90608E+07 9.06602E+06 1.38169E+06-3.62039E+05-2.16850E-08 8.16176E+06
 -1       115-2.27180E+07-6.46761E+06 1.38169E+06 4.45057E+05-6.31297E-09 8.16176E+06
 -1       116-2.32679E+07-6.46761E+06 1.21673E+06 4.45057E+05-1.62709E-08 8.96886E+06
 -1       117 2.85109E+07 9.06602E+06 1.21673E+06-3.62039E+05-2.78919E-08 8.96886E+06
 -1       122 6.66557E+05-1.19262E+06-4.41734E+06-7.82326E+05-5.66671E+05-2.96096E+06
 -1       123 6.15483E+06 1.31773E+06-1.53780E+06 7.43857E+05 5.38806E+05 1.01442E+06
 -1       124 3.94437E+06 1.31773E+06-4.64111E+04 7.43857E+05 5.38806E+05 1.41798E+06
 -1       125-1.54390E+06-1.19262E+06-2.92595E+06-7.82326E+05-5.66671E+05-2.55740E+06
 -1       130-2.31850E+06 6.07398E+06 2.09674E+07-1.01640E-08 3.40283E+05-8.51634E+06
 -1       131-2.31850E+06-1.00358E+07-3.27318E+07-1.46016E-08-1.84264E+05-8.51634E+06
 -1       132-1.64332E+06-1.00358E+07-3.04812E+07-1.39152E-08-1.84264E+05-7.99179E+06
 -1       133-1.64332E+06 6.07398E+06 2.32181E+07-1.64771E-08 3.40283E+05-7.99179E+06
 -1       164 6.56506E+05 2.80212E+06 6.05211E+06 6.30197E-09-3.74822E+04 7.76085E+05
 -1       165 6.56506E+05-1.45745E+06-8.14644E+06 6.22943E-09 1.26913E+05 7.76085E+05
 -1       166 6.88157E+05-1.45745E+06-8.04094E+06 9.51034E-11 1.26913E+05 6.11690E+05
 -1       167 6.88157E+05 2.80212E+06 6.15762E+06 1.10539E-09-3.74822E+04 6.11690E+05
 -1       172 1.09161E+06 5.62196E+05 6.49863E+05 4.37846E+04-2.76022E-09 1.43729E+06
 -1       173-2.06349E+06-3.84334E+05 6.49863E+05-1.12737E+05-6.80140E-09 1.43729E+06
 -1       174-5.80304E+06-3.84334E+05-4.72001E+05-1.12737E+05 3.84301E-09 1.28077E+06
 -1       175-2.64794E+06 5.62196E+05-4.72001E+05 4.37846E+04-1.67736E-09 1.28077E+06
 -1       198-4.65778E+05 1.15475E+06 5.19986E+06-1.21213E-09 2.53767E+05-7.66856E+05
 -1       199-4.65778E+05-2.07810E+06-5.57629E+06-7.06983E-10-3.17894E+05-7.66856E+05
 -1       200-4.57572E+05-2.07810E+06-5.54894E+06-6.00621E-10-3.17894E+05-1.33852E+06
 -1       201-4.57572E+05 1.15475E+06 5.22721E+06-1.10577E-09 2.53767E+05-1.33852E+06
 -1       206-5.19266E+06-2.36921E+06 1.97756E+05 2.34053E+04 4.27009E-09-1.88729E+06
 -1       207 8.84393E+06 1.84177E+06 1.97756E+05-3.75044E+05 6.14558E-09-1.88729E+06
 -1       208 5.76745E+06 1.84177E+06-7.25189E+05-3.75044E+05-4.89516E-09-2.28574E+06
 -1       209-8.26915E+06-2.36921E+06-7.25189E+05 2.34053E+04-3.01967E-09-2.28574E+06
 -1       232 4.43611E+06 3.57277E+05-4.45325E+06 5.22146E-10 2.43297E+05 3.04081E+06
 -1       233 4.43611E+06 8.66046E+06 2.32240E+07 3.28230E-09-1.85583E+05 3.04081E+06
 -1       234 4.58163E+06 8.66046E+06 2.37091E+07-3.77039E-09-1.85583E+05 3.46969E+06
 -1       235 4.58163E+06 3.57277E+05-3.96817E+06 1.40674E-09 2.43297E+05 3.46969E+06
 -1       240-7.63273E+06-3.15121E+06-2.06545E+06 2.37968E+04 2.10440E-09-5.80851E+04
 -1       241-3.00724E+06-1.76356E+06-2.06545E+06 1.61079E+05 3.58359E-09-5.80851E+04
 -1       242-5.62015E+06-1.76356E+06-2.84932E+06 1.61079E+05 5.60420E-09 7.91975E+04
 -1       243-1.02456E+07-3.15121E+06-2.84932E+06 2.37968E+04 1.56299E-09 7.91975E+04
 -1       266 5.90268E+07 2.18305E+07 1.37097E+07 1.58450E+06-4.07437E+06 1.94147E+07
 -1       267-5.88697E+07-2.18829E+07-1.41057E+07 1.48215E+06-4.11270E+06-1.98341E+07
 -1       268-5.88697E+07-2.18829E+07-1.41057E+07-1.48215E+06 4.11270E+06-1.98341E+07
 -1       269 5.90268E+07 2.18305E+07 1.37097E+07-1.58450E+06 4.07437E+06 1.94147E+07
 -1       274-7.33445E+07-2.14915E+07-5.41994E+05 7.09770E+03 2.93058E+02-2.21159E+06
 -1       275 6.98734E+07 2.15472E+07-2.97836E+05 7.09764E+03 2.93056E+02 3.70177E+06
 -1       276 7.32789E+07 2.15472E+07 7.29095E+05 7.09764E+03 2.93056E+02 3.80014E+06
 -1       277-6.99390E+07-2.14915E+07 4.84937E+05 7.09770E+03 2.93058E+02-2.11321E+06
 -1       300 4.59178E+07-8.72919E+06 6.30303E+05-1.48215E+06 4.11270E+06 1.94018E+07
 -1       301-4.57510E+07 8.75540E+06-9.57350E+05-1.58450E+06 4.07437E+06-1.98470E+07
 -1       302-4.57510E+07 8.75540E+06-9.57350E+05 1.58450E+06-4.07437E+06-1.98470E+07
 -1       303 4.59178E+07-8.72919E+06 6.30303E+05 1.48215E+06-4.11270E+06 1.94018E+07
 -1       308-7.33446E+07-2.15357E+07-5.86180E+05 7.09770E+03 2.93058E+02-2.20977E+06
 -1       309 6.98733E+07 2.15029E+07-3.42022E+05 7.09764E+03 2.93056E+02 3.70359E+06
 -1       310 7.32788E+07 2.15029E+07 6.84908E+05 7.09764E+03 2.93056E+02 3.80197E+06
 -1       311-6.99391E+07-2.15357E+07 4.40750E+05 7.09770E+03 2.93058E+02-2.11139E+06
 -1       316 6.36161E+05-1.28095E+06-4.47527E+06-7.82326E+05-5.66671E+05-2.91900E+06
 -1       317 6.12444E+06 1.22940E+06-1.59574E+06 7.43857E+05 5.38806E+05 1.05639E+06
 -1       318 3.91397E+06 1.22940E+06-1.04346E+05 7.43857E+05 5.38806E+05 1.45995E+06
 -1       319-1.57430E+06-1.28095E+06-2.98388E+06-7.82326E+05-5.66671E+05-2.51544E+06
 -1       342 1.69581E+06 1.00883E+07 2.09674E+07-6.02390E-10 3.40283E+05-8.51634E+06
 -1       343 1.69581E+06-6.02149E+06-3.27318E+07-3.16444E-09-1.84264E+05-8.51634E+06
 -1       344 2.37099E+06-6.02149E+06-3.04812E+07-1.46016E-08-1.84264E+05-7.99179E+06
 -1       345 2.37099E+06 1.00883E+07 2.32181E+07-1.01640E-08 3.40283E+05-7.99179E+06
 -1       350-2.26414E+07-3.90507E+06 6.58081E+05-1.65704E+04-5.91670E-09-4.87805E+06
 -1       351 6.95643E+06 4.97427E+06 6.58081E+05 1.72590E+05-6.99953E-09-4.87805E+06
 -1       352 6.13323E+06 4.97427E+06 4.11122E+05 1.72590E+05-1.10407E-08-4.68889E+06
 -1       353-2.34646E+07-3.90507E+06 4.11122E+05-1.65704E+04-9.95791E-09-4.68889E+06
 -3
    1PSTEP                         3           1           1          
  100CL  101 1.000000000          88                     0    1           1
 -4  ERROR       1    1
 -5  STR(%)      1    1    0    0
 -1        12 1.32279E+02
 -1        13 1.32279E+02
 -1        14 1.32279E+02
 -1        15 1.32279E+02
 -1        20 1.14981E+02
 -1        21 1.14981E+02
 -1        22 1.14981E+02
 -1        23 1.14981E+02
 -1        46 1.32279E+02
 -1        47 1.32279E+02
 -1        48 1.32279E+02
 -1        49 1.32279E+02
 -1        54 1.33584E+02
 -1        55 1.33584E+02
 -1        56 1.33584E+02
 -1        57 1.33584E+02
 -1        80 1.19259E+02
 -1        81 1.19259E+02
 -1        82 1.19259E+02
 -1        83 1.19259E+02
 -1        88 8.48741E+01
 -1        89 8.48741E+01
 -1        90 8.48741E+01
 -1        91 8.48741E+01
 -1       114 9.81915E+01
 -1       115 9.81915E+01
 -1       116 9.81915E+01
 -1       117 9.81915E+01
 -1       122 9.19603E+01
 -1       123 9.19603E+01
 -1       124 9.19603E+01
 -1       125 9.19603E+01
 -1       130 1.03276E+02
 -1       131 1.03276E+02
 -1       132 1.03276E+02
 -1       133 1.03276E+02
 -1       164 1.33584E+02
 -1       165 1.33584E+02
 -1       166 1.33584E+02
 -1       167 1.33584E+02
 -1       172 1.05563E+02
 -1       173 1.05563E+02
 -1       174 1.05563E+02
 -1       175 1.05563E+02
 -1       198 1.14981E+02
 -1       199 1.14981E+02
 -1       200 1.14981E+02
 -1       201 1.14981E+02
 -1       206 1.05563E+02
 -1       207 1.05563E+02
 -1       208 1.05563E+02
 -1       209 1.05563E+02
 -1       232 8.48741E+01
 -1       233 8.48741E+01
 -1       234 8.48741E+01
 -1       235 8.48741E+01
 -1       240 8.61244E+01
 -1       241 8.61244E+01
 -1       242 8.61244E+01
 -1       243 8.61244E+01
 -1       266 1.28581E+02
 -1       267 1.28581E+02
 -1       268 1.28581E+02
 -1       269 1.28581E+02
 -1       274 1.22456E+02
 -1       275 1.22456E+02
 -1       276 1.22456E+02
 -1       277 1.22456E+02
 -1       300 1.28581E+02
 -1       301 1.28581E+02
 -1       302 1.28581E+02
 -1       303 1.28581E+02
 -1       308 1.22456E+02
 -1       309 1.22456E+02
 -1       310 1.22456E+02
 -1       311 1.22456E+02
 -1       316 9.19603E+01
 -1       317 9.19603E+01
 -1       318 9.19603E+01
 -1       319 9.19603E+01
 -1       342 1.03276E+02
 -1       343 1.03276E+02
 -1       344 1.03276E+02
 -1       345 1.03276E+02
 -1       350 8.61244E+01
 -1       351 8.61244E+01
 -1       352 8.61244E+01
 -1       353 8.61244E+01
 -3
 9999
